(declare-fun bvlambda_11_ ()Bool         )
(declare-fun a196 () (Array (_ BitVec 1) (_ BitVec 12)))
(assert
(let (($e41 (_ bv3422 15)))
(let (($e42 (_ bv3422 12)))
(let (($e373 ((_ extract 12 1) $e41 )))
(let (($e374 (store a196 true               $e42 )))
(let (($e375 (store $e374 bvlambda_11_        $e373 )))
(
                 extract(select $e375 true)
                                                                                                                                                                                                                                                                                                                                                                                                                                                                                                                                                                                                                                                                                                                                                                                                                                                                                                                                                                                                                                                                                                                                                                                                                                                                                                                                                                                                                                                                                                                                                                                                                                                                                                                                                                                                                                                                                                                                                                                                                                                                                                                                                                                                                                                                                                                                                                                                                                                                                                                                                                                                                                                                                                                                                                                                                                                                                                                                                                                                                                                                                                                                                                                                                                                                                                                                                                                                                                                         ))))                                                                                                                                                                                                                                                             ))                                        )
